NAME : st68_R
TYPE : TSP
DIMENSION : 36
EDGE_WEIGHT_TYPE : EUC_2D
NODE_COORD_SECTION
1 64 96
5 48 67
10 42 67
11 7 76
12 29 51
13 78 92
15 95 57
16 57 91
22 76 73
23 67 88
24 93 54
29 78 94
31 82 88
33 20 55
35 95 86
36 67 99
37 48 83
38 75 81
47 58 85
48 5 67
50 41 76
51 25 76
52 37 64
53 56 63
54 10 55
56 16 74
57 89 60
59 81 76
60 29 60
63 79 70
64 9 100
65 17 82
66 74 67
67 10 68
69 83 86
70 84 94
EOF
